5
4
20
1 1.3 1.55 1.75 2.1
33 37 21 8 10 17 11 47 20 39 42 6 8 48 39 24 16 26 6 38 18 23 33 20 48 19 44 8 34 15 49 14 5 12 10 18 18 11 35 46 34 37 20 37 13 6 49 10 13 45 30 23 13 47 16 39 29 39 5 32 42 36 8 29 34 40 38 45 14 27 36 49 29 8 42 45 29 44 45 17 